Traveling Salesman Problem/TSP_generados/Aleatorio1620391075_13.tsp
NAME: Aleatorio1620391075_13.tsp
COMMENT: Randomly generated scenario
TYPE: TSP
DIMENSION: 13
EDGE_WEIGHT_TYPE: ATT
NODE_COORD_SECTION
1 4.11 6.78
2 16.63 12.79
3 16.82 26.64
4 37.89 24.02
5 49.11 38.53
6 27.6 14.55
7 19.16 16.35
8 22.03 6.91
9 1.28 49.06
10 46.5 16.89
11 35.88 13.19
12 42.11 35.25
13 33.59 25.53
