Traveling Salesman Problem/TSP_generados/Aleatorio1620391075_13.opt.tour
NAME: Aleatorio1620391075_13.opt.tour
COMMENT: Optimal solution for Aleatorio1620391075_13 (188.46701608760256)
TYPE: TOUR
DIMENSION: 13
TOUR_SECTION
1 2 7 3 9 5 12 13 4 10 11 6 8
-1
EOF
